p cnf 2937 1014
-2611 2780 0
-2780 2611 0
-2782 -2783 0
-2613 2782 0
-2614 2783 0
-2782 2613 0
-2783 2614 0
-2785 -2786 0
-2616 2785 0
-2617 2786 0
-2785 2616 0
-2786 2617 0
-2788 -2789 0
-2788 -2790 0
-2789 -2790 0
-2619 2788 0
-2620 2789 0
-2621 2790 0
-2788 2619 0
-2789 2620 0
-2790 2621 0
-2792 -2793 0
-2623 2792 0
-2624 2793 0
-2792 2623 0
-2793 2624 0
-2795 -2796 0
-2795 -2797 0
-2796 -2797 0
-2626 2795 0
-2627 2796 0
-2628 2797 0
-2795 2626 0
-2796 2627 0
-2797 2628 0
-2799 -2800 0
-2630 2799 0
-2631 2800 0
-2799 2630 0
-2800 2631 0
-2802 -2803 0
-2802 -2804 0
-2803 -2804 0
-2633 2802 0
-2634 2803 0
-2635 2804 0
-2802 2633 0
-2803 2634 0
-2804 2635 0
-2806 -2807 0
-2637 2806 0
-2638 2807 0
-2806 2637 0
-2807 2638 0
-2809 -2810 0
-2809 -2811 0
-2810 -2811 0
-2640 2809 0
-2641 2810 0
-2642 2811 0
-2809 2640 0
-2810 2641 0
-2811 2642 0
-2813 -2814 0
-2644 2813 0
-2645 2814 0
-2813 2644 0
-2814 2645 0
-2816 -2817 0
-2816 -2818 0
-2817 -2818 0
-2647 2816 0
-2648 2817 0
-2649 2818 0
-2816 2647 0
-2817 2648 0
-2818 2649 0
-2820 -2821 0
-2651 2820 0
-2652 2821 0
-2820 2651 0
-2821 2652 0
-2823 -2824 0
-2823 -2825 0
-2824 -2825 0
-2654 2823 0
-2655 2824 0
-2656 2825 0
-2823 2654 0
-2824 2655 0
-2825 2656 0
-2827 -2828 0
-2658 2827 0
-2659 2828 0
-2827 2658 0
-2828 2659 0
-2830 -2831 0
-2830 -2832 0
-2831 -2832 0
-2661 2830 0
-2662 2831 0
-2663 2832 0
-2830 2661 0
-2831 2662 0
-2832 2663 0
-2834 -2835 0
-2665 2834 0
-2666 2835 0
-2834 2665 0
-2835 2666 0
-2837 -2838 0
-2837 -2839 0
-2838 -2839 0
-2668 2837 0
-2669 2838 0
-2670 2839 0
-2837 2668 0
-2838 2669 0
-2839 2670 0
-2841 -2842 0
-2672 2841 0
-2673 2842 0
-2841 2672 0
-2842 2673 0
-2844 -2845 0
-2844 -2846 0
-2845 -2846 0
-2675 2844 0
-2676 2845 0
-2677 2846 0
-2844 2675 0
-2845 2676 0
-2846 2677 0
-2848 -2849 0
-2679 2849 0
-2680 2848 0
-2848 2680 0
-2849 2679 0
-2851 2861 2862 2863 2864 2865 0
-2861 -2862 0
-2861 -2863 0
-2861 -2864 0
-2861 -2865 0
-2862 -2863 0
-2862 -2864 0
-2862 -2865 0
-2863 -2864 0
-2863 -2865 0
-2864 -2865 0
-2851 2866 2867 2868 2869 2870 2871 2872 0
-2866 -2867 0
-2866 -2868 0
-2866 -2869 0
-2866 -2870 0
-2866 -2871 0
-2866 -2872 0
-2867 -2868 0
-2867 -2869 0
-2867 -2870 0
-2867 -2871 0
-2867 -2872 0
-2868 -2869 0
-2868 -2870 0
-2868 -2871 0
-2868 -2872 0
-2869 -2870 0
-2869 -2871 0
-2869 -2872 0
-2870 -2871 0
-2870 -2872 0
-2871 -2872 0
-2851 2873 2874 2875 2876 2877 2878 2879 2880 0
-2873 -2874 0
-2873 -2875 0
-2873 -2876 0
-2873 -2877 0
-2873 -2878 0
-2873 -2879 0
-2873 -2880 0
-2874 -2875 0
-2874 -2876 0
-2874 -2877 0
-2874 -2878 0
-2874 -2879 0
-2874 -2880 0
-2875 -2876 0
-2875 -2877 0
-2875 -2878 0
-2875 -2879 0
-2875 -2880 0
-2876 -2877 0
-2876 -2878 0
-2876 -2879 0
-2876 -2880 0
-2877 -2878 0
-2877 -2879 0
-2877 -2880 0
-2878 -2879 0
-2878 -2880 0
-2879 -2880 0
-2851 2858 0
-2851 2860 0
-2851 2857 0
-2853 2861 2862 2863 2864 2865 0
-2861 -2862 0
-2861 -2863 0
-2861 -2864 0
-2861 -2865 0
-2862 -2863 0
-2862 -2864 0
-2862 -2865 0
-2863 -2864 0
-2863 -2865 0
-2864 -2865 0
-2853 2866 2867 2868 2869 2870 2871 2872 0
-2866 -2867 0
-2866 -2868 0
-2866 -2869 0
-2866 -2870 0
-2866 -2871 0
-2866 -2872 0
-2867 -2868 0
-2867 -2869 0
-2867 -2870 0
-2867 -2871 0
-2867 -2872 0
-2868 -2869 0
-2868 -2870 0
-2868 -2871 0
-2868 -2872 0
-2869 -2870 0
-2869 -2871 0
-2869 -2872 0
-2870 -2871 0
-2870 -2872 0
-2871 -2872 0
-2853 2873 2874 2875 2876 2877 2878 2879 2880 0
-2873 -2874 0
-2873 -2875 0
-2873 -2876 0
-2873 -2877 0
-2873 -2878 0
-2873 -2879 0
-2873 -2880 0
-2874 -2875 0
-2874 -2876 0
-2874 -2877 0
-2874 -2878 0
-2874 -2879 0
-2874 -2880 0
-2875 -2876 0
-2875 -2877 0
-2875 -2878 0
-2875 -2879 0
-2875 -2880 0
-2876 -2877 0
-2876 -2878 0
-2876 -2879 0
-2876 -2880 0
-2877 -2878 0
-2877 -2879 0
-2877 -2880 0
-2878 -2879 0
-2878 -2880 0
-2879 -2880 0
-2853 2859 0
-2853 2856 0
-2853 2857 0
-2851 -2852 0
-2851 -2853 0
-2851 -2854 0
-2852 -2853 0
-2852 -2854 0
-2853 -2854 0
-2861 -2856 2747 0
-2864 -2856 2718 0
-2863 -2856 2712 0
-2862 -2856 2737 0
-2865 -2856 2721 0
-2864 -2866 -2857 2725 0
-2864 -2871 -2857 2732 0
-2864 -2867 -2857 2710 0
-2862 -2870 -2857 2711 0
-2864 -2872 -2857 2713 0
-2861 -2867 -2857 2714 0
-2863 -2867 -2857 2728 0
-2865 -2870 -2857 2743 0
-2863 -2872 -2857 2715 0
-2864 -2869 -2857 2717 0
-2863 -2870 -2857 2736 0
-2861 -2870 -2857 2729 0
-2865 -2871 -2857 2719 0
-2865 -2867 -2857 2744 0
-2861 -2871 -2857 2745 0
-2864 -2868 -2857 2738 0
-2862 -2867 -2857 2739 0
-2865 -2866 -2857 2722 0
-2865 -2868 -2857 2740 0
-2862 -2872 -2857 2731 0
-2865 -2872 -2857 2724 0
-2864 -2870 -2857 2741 0
-2861 -2872 -2857 2748 0
-2862 -2868 -2857 2749 0
-2861 -2868 -2857 2750 0
-2874 -2858 2726 0
-2879 -2858 2718 0
-2880 -2858 2733 0
-2875 -2858 2712 0
-2878 -2858 2737 0
-2876 -2858 2721 0
-2877 -2858 2730 0
-2873 -2858 2747 0
-2877 -2859 2581 0
-2876 -2859 2556 0
-2878 -2859 2557 0
-2874 -2859 2576 0
-2873 -2859 2579 0
-2875 -2859 2572 0
-2879 -2859 2587 0
-2880 -2859 2562 0
-2861 -2860 2579 0
-2865 -2860 2556 0
-2862 -2860 2557 0
-2863 -2860 2572 0
-2864 -2860 2587 0
-2851 -2861 -2873 0
-2851 -2861 -2879 0
-2851 -2861 -2876 0
-2851 -2862 -2873 0
-2851 -2862 -2878 0
-2851 -2862 -2879 0
-2851 -2862 -2876 0
-2851 -2865 -2879 0
-2851 -2865 -2876 0
-2851 -2864 -2879 0
-2851 -2863 -2873 0
-2851 -2863 -2878 0
-2851 -2863 -2879 0
-2851 -2863 -2875 0
-2851 -2863 -2876 0
-2851 -2861 -2866 0
-2851 -2861 -2869 0
-2851 -2862 -2866 0
-2851 -2862 -2869 0
-2851 -2862 -2871 0
-2851 -2865 -2869 0
-2851 -2863 -2866 0
-2851 -2863 -2869 0
-2851 -2863 -2868 0
-2851 -2863 -2871 0
-2853 -2861 -2873 0
-2853 -2861 -2879 0
-2853 -2861 -2876 0
-2853 -2862 -2873 0
-2853 -2862 -2878 0
-2853 -2862 -2879 0
-2853 -2862 -2876 0
-2853 -2865 -2879 0
-2853 -2865 -2876 0
-2853 -2864 -2879 0
-2853 -2863 -2873 0
-2853 -2863 -2878 0
-2853 -2863 -2879 0
-2853 -2863 -2875 0
-2853 -2863 -2876 0
-2853 -2861 -2866 0
-2853 -2861 -2869 0
-2853 -2862 -2866 0
-2853 -2862 -2869 0
-2853 -2862 -2871 0
-2853 -2865 -2869 0
-2853 -2863 -2866 0
-2853 -2863 -2869 0
-2853 -2863 -2868 0
-2853 -2863 -2871 0
-2706 2851 0
-2707 2854 0
-2708 2853 0
-2705 2852 0
-2851 2706 0
-2852 2705 0
-2853 2708 0
-2854 2707 0
-2881 2883 0
-2882 -2883 0
-2556 2884 -2851 2865 0
-2556 2884 -2853 2876 0
-2556 2884 2851 2853 0
2556 -2884 -2851 2869 0
2556 -2884 -2853 2865 0
2556 -2884 2851 2853 0
-2557 2885 -2851 2862 0
-2557 2885 -2853 2878 0
-2557 2885 2851 2853 0
2557 -2885 -2851 2871 0
2557 -2885 -2853 2862 0
2557 -2885 2851 2853 0
-2710 2886 -2851 -2864 2867 0
-2710 2886 -2851 2864 0
-2710 2886 -2853 -2864 2867 0
-2710 2886 -2853 2864 0
-2710 2886 2851 2853 0
2710 -2886 -2851 -2864 2874 0
2710 -2886 -2851 2864 0
2710 -2886 -2853 -2864 2874 0
2710 -2886 -2853 2864 0
2710 -2886 2851 2853 0
-2711 2887 -2851 -2862 2870 0
-2711 2887 -2851 2862 0
-2711 2887 -2853 -2862 2870 0
-2711 2887 -2853 2862 0
-2711 2887 2851 2853 0
2711 -2887 -2851 -2862 2877 0
2711 -2887 -2851 2862 0
2711 -2887 -2853 -2862 2877 0
2711 -2887 -2853 2862 0
2711 -2887 2851 2853 0
-2712 2888 -2851 2875 0
-2712 2888 -2853 2863 0
-2712 2888 2851 2853 0
2712 -2888 -2851 2863 0
2712 -2888 -2853 2868 0
2712 -2888 2851 2853 0
-2713 2889 -2851 -2864 2872 0
-2713 2889 -2851 2864 0
-2713 2889 -2853 -2864 2872 0
-2713 2889 -2853 2864 0
-2713 2889 2851 2853 0
2713 -2889 -2851 -2864 2880 0
2713 -2889 -2851 2864 0
2713 -2889 -2853 -2864 2880 0
2713 -2889 -2853 2864 0
2713 -2889 2851 2853 0
-2714 2890 -2851 -2861 2867 0
-2714 2890 -2851 2861 0
-2714 2890 -2853 -2861 2867 0
-2714 2890 -2853 2861 0
-2714 2890 2851 2853 0
2714 -2890 -2851 -2861 2874 0
2714 -2890 -2851 2861 0
2714 -2890 -2853 -2861 2874 0
2714 -2890 -2853 2861 0
2714 -2890 2851 2853 0
-2562 2891 -2853 2880 0
-2562 2891 2853 0
2562 -2891 -2851 2872 0
2562 -2891 2851 0
-2715 2892 -2851 -2863 2872 0
-2715 2892 -2851 2863 0
-2715 2892 -2853 -2863 2872 0
-2715 2892 -2853 2863 0
-2715 2892 2851 2853 0
2715 -2892 -2851 -2863 2880 0
2715 -2892 -2851 2863 0
2715 -2892 -2853 -2863 2880 0
2715 -2892 -2853 2863 0
2715 -2892 2851 2853 0
-2717 2893 -2851 -2864 2869 0
-2717 2893 -2851 2864 0
-2717 2893 -2853 -2864 2869 0
-2717 2893 -2853 2864 0
-2717 2893 2851 2853 0
2717 -2893 -2851 -2864 2876 0
2717 -2893 -2851 2864 0
2717 -2893 -2853 -2864 2876 0
2717 -2893 -2853 2864 0
2717 -2893 2851 2853 0
-2718 2894 -2851 2879 0
-2718 2894 -2853 2864 0
-2718 2894 2851 2853 0
2718 -2894 -2851 2864 0
2718 -2894 2851 0
-2719 2895 -2851 -2865 2871 0
-2719 2895 -2851 2865 0
-2719 2895 -2853 -2865 2871 0
-2719 2895 -2853 2865 0
-2719 2895 2851 2853 0
2719 -2895 -2851 -2865 2878 0
2719 -2895 -2851 2865 0
2719 -2895 -2853 -2865 2878 0
2719 -2895 -2853 2865 0
2719 -2895 2851 2853 0
-2721 2896 -2851 2876 0
-2721 2896 -2853 2865 0
-2721 2896 2851 2853 0
2721 -2896 -2851 2865 0
2721 -2896 -2853 2869 0
2721 -2896 2851 2853 0
-2722 2897 -2851 -2865 2866 0
-2722 2897 -2851 2865 0
-2722 2897 -2853 -2865 2866 0
-2722 2897 -2853 2865 0
-2722 2897 2851 2853 0
2722 -2897 -2851 -2865 2873 0
2722 -2897 -2851 2865 0
2722 -2897 -2853 -2865 2873 0
2722 -2897 -2853 2865 0
2722 -2897 2851 2853 0
-2724 2898 -2851 -2865 2872 0
-2724 2898 -2851 2865 0
-2724 2898 -2853 -2865 2872 0
-2724 2898 -2853 2865 0
-2724 2898 2851 2853 0
2724 -2898 -2851 -2865 2880 0
2724 -2898 -2851 2865 0
2724 -2898 -2853 -2865 2880 0
2724 -2898 -2853 2865 0
2724 -2898 2851 2853 0
-2725 2899 -2851 -2864 2866 0
-2725 2899 -2851 2864 0
-2725 2899 -2853 -2864 2866 0
-2725 2899 -2853 2864 0
-2725 2899 2851 2853 0
2725 -2899 -2851 -2864 2873 0
2725 -2899 -2851 2864 0
2725 -2899 -2853 -2864 2873 0
2725 -2899 -2853 2864 0
2725 -2899 2851 2853 0
-2726 2900 -2851 2874 0
-2726 2900 2851 0
2726 -2900 -2853 2867 0
2726 -2900 2853 0
-2572 2901 -2851 2863 0
-2572 2901 -2853 2875 0
-2572 2901 2851 2853 0
2572 -2901 -2851 2868 0
2572 -2901 -2853 2863 0
2572 -2901 2851 2853 0
-2728 2902 -2851 -2863 2867 0
-2728 2902 -2851 2863 0
-2728 2902 -2853 -2863 2867 0
-2728 2902 -2853 2863 0
-2728 2902 2851 2853 0
2728 -2902 -2851 -2863 2874 0
2728 -2902 -2851 2863 0
2728 -2902 -2853 -2863 2874 0
2728 -2902 -2853 2863 0
2728 -2902 2851 2853 0
-2729 2903 -2851 -2861 2870 0
-2729 2903 -2851 2861 0
-2729 2903 -2853 -2861 2870 0
-2729 2903 -2853 2861 0
-2729 2903 2851 2853 0
2729 -2903 -2851 -2861 2877 0
2729 -2903 -2851 2861 0
2729 -2903 -2853 -2861 2877 0
2729 -2903 -2853 2861 0
2729 -2903 2851 2853 0
-2576 2904 -2853 2874 0
-2576 2904 2853 0
2576 -2904 -2851 2867 0
2576 -2904 2851 0
-2730 2905 -2851 2877 0
-2730 2905 2851 0
2730 -2905 -2853 2870 0
2730 -2905 2853 0
-2731 2906 -2851 -2862 2872 0
-2731 2906 -2851 2862 0
-2731 2906 -2853 -2862 2872 0
-2731 2906 -2853 2862 0
-2731 2906 2851 2853 0
2731 -2906 -2851 -2862 2880 0
2731 -2906 -2851 2862 0
2731 -2906 -2853 -2862 2880 0
2731 -2906 -2853 2862 0
2731 -2906 2851 2853 0
-2732 2907 -2851 -2864 2871 0
-2732 2907 -2851 2864 0
-2732 2907 -2853 -2864 2871 0
-2732 2907 -2853 2864 0
-2732 2907 2851 2853 0
2732 -2907 -2851 -2864 2878 0
2732 -2907 -2851 2864 0
2732 -2907 -2853 -2864 2878 0
2732 -2907 -2853 2864 0
2732 -2907 2851 2853 0
-2733 2908 -2851 2880 0
-2733 2908 2851 0
2733 -2908 -2853 2872 0
2733 -2908 2853 0
-2579 2909 -2851 2861 0
-2579 2909 -2853 2873 0
-2579 2909 2851 2853 0
2579 -2909 -2851 2866 0
2579 -2909 -2853 2861 0
2579 -2909 2851 2853 0
-2581 2910 -2853 2877 0
-2581 2910 2853 0
2581 -2910 -2851 2870 0
2581 -2910 2851 0
-2736 2911 -2851 -2863 2870 0
-2736 2911 -2851 2863 0
-2736 2911 -2853 -2863 2870 0
-2736 2911 -2853 2863 0
-2736 2911 2851 2853 0
2736 -2911 -2851 -2863 2877 0
2736 -2911 -2851 2863 0
2736 -2911 -2853 -2863 2877 0
2736 -2911 -2853 2863 0
2736 -2911 2851 2853 0
-2737 2912 -2851 2878 0
-2737 2912 -2853 2862 0
-2737 2912 2851 2853 0
2737 -2912 -2851 2862 0
2737 -2912 -2853 2871 0
2737 -2912 2851 2853 0
-2738 2913 -2851 -2864 2868 0
-2738 2913 -2851 2864 0
-2738 2913 -2853 -2864 2868 0
-2738 2913 -2853 2864 0
-2738 2913 2851 2853 0
2738 -2913 -2851 -2864 2875 0
2738 -2913 -2851 2864 0
2738 -2913 -2853 -2864 2875 0
2738 -2913 -2853 2864 0
2738 -2913 2851 2853 0
-2739 2914 -2851 -2862 2867 0
-2739 2914 -2851 2862 0
-2739 2914 -2853 -2862 2867 0
-2739 2914 -2853 2862 0
-2739 2914 2851 2853 0
2739 -2914 -2851 -2862 2874 0
2739 -2914 -2851 2862 0
2739 -2914 -2853 -2862 2874 0
2739 -2914 -2853 2862 0
2739 -2914 2851 2853 0
-2740 2915 -2851 -2865 2868 0
-2740 2915 -2851 2865 0
-2740 2915 -2853 -2865 2868 0
-2740 2915 -2853 2865 0
-2740 2915 2851 2853 0
2740 -2915 -2851 -2865 2875 0
2740 -2915 -2851 2865 0
2740 -2915 -2853 -2865 2875 0
2740 -2915 -2853 2865 0
2740 -2915 2851 2853 0
-2587 2916 -2851 2864 0
-2587 2916 -2853 2879 0
-2587 2916 2851 2853 0
2587 -2916 -2853 2864 0
2587 -2916 2853 0
-2741 2917 -2851 -2864 2870 0
-2741 2917 -2851 2864 0
-2741 2917 -2853 -2864 2870 0
-2741 2917 -2853 2864 0
-2741 2917 2851 2853 0
2741 -2917 -2851 -2864 2877 0
2741 -2917 -2851 2864 0
2741 -2917 -2853 -2864 2877 0
2741 -2917 -2853 2864 0
2741 -2917 2851 2853 0
-2743 2918 -2851 -2865 2870 0
-2743 2918 -2851 2865 0
-2743 2918 -2853 -2865 2870 0
-2743 2918 -2853 2865 0
-2743 2918 2851 2853 0
2743 -2918 -2851 -2865 2877 0
2743 -2918 -2851 2865 0
2743 -2918 -2853 -2865 2877 0
2743 -2918 -2853 2865 0
2743 -2918 2851 2853 0
-2744 2919 -2851 -2865 2867 0
-2744 2919 -2851 2865 0
-2744 2919 -2853 -2865 2867 0
-2744 2919 -2853 2865 0
-2744 2919 2851 2853 0
2744 -2919 -2851 -2865 2874 0
2744 -2919 -2851 2865 0
2744 -2919 -2853 -2865 2874 0
2744 -2919 -2853 2865 0
2744 -2919 2851 2853 0
-2745 2920 -2851 -2861 2871 0
-2745 2920 -2851 2861 0
-2745 2920 -2853 -2861 2871 0
-2745 2920 -2853 2861 0
-2745 2920 2851 2853 0
2745 -2920 -2851 -2861 2878 0
2745 -2920 -2851 2861 0
2745 -2920 -2853 -2861 2878 0
2745 -2920 -2853 2861 0
2745 -2920 2851 2853 0
-2747 2921 -2851 2873 0
-2747 2921 -2853 2861 0
-2747 2921 2851 2853 0
2747 -2921 -2851 2861 0
2747 -2921 -2853 2866 0
2747 -2921 2851 2853 0
-2748 2922 -2851 -2861 2872 0
-2748 2922 -2851 2861 0
-2748 2922 -2853 -2861 2872 0
-2748 2922 -2853 2861 0
-2748 2922 2851 2853 0
2748 -2922 -2851 -2861 2880 0
2748 -2922 -2851 2861 0
2748 -2922 -2853 -2861 2880 0
2748 -2922 -2853 2861 0
2748 -2922 2851 2853 0
-2749 2923 -2851 -2862 2868 0
-2749 2923 -2851 2862 0
-2749 2923 -2853 -2862 2868 0
-2749 2923 -2853 2862 0
-2749 2923 2851 2853 0
2749 -2923 -2851 -2862 2875 0
2749 -2923 -2851 2862 0
2749 -2923 -2853 -2862 2875 0
2749 -2923 -2853 2862 0
2749 -2923 2851 2853 0
-2750 2924 -2851 -2861 2868 0
-2750 2924 -2851 2861 0
-2750 2924 -2853 -2861 2868 0
-2750 2924 -2853 2861 0
-2750 2924 2851 2853 0
2750 -2924 -2851 -2861 2875 0
2750 -2924 -2851 2861 0
2750 -2924 -2853 -2861 2875 0
2750 -2924 -2853 2861 0
2750 -2924 2851 2853 0
-2881 -2882 0
-2867 -2925 2900 0
-2872 -2925 2908 0
-2868 -2925 2888 0
-2871 -2925 2912 0
-2869 -2925 2896 0
-2870 -2925 2905 0
-2866 -2925 2921 0
-2861 2926 -2921 0
-2864 2926 -2894 0
-2863 2926 -2888 0
-2862 2926 -2912 0
-2865 2926 -2896 0
-2861 -2926 2921 0
-2864 -2926 2894 0
-2863 -2926 2888 0
-2862 -2926 2912 0
-2865 -2926 2896 0
-2864 -2866 2927 -2899 0
-2864 -2871 2927 -2907 0
-2864 -2867 2927 -2886 0
-2862 -2870 2927 -2887 0
-2864 -2872 2927 -2889 0
-2861 -2867 2927 -2890 0
-2863 -2867 2927 -2902 0
-2865 -2870 2927 -2918 0
-2863 -2872 2927 -2892 0
-2864 -2869 2927 -2893 0
-2863 -2870 2927 -2911 0
-2861 -2870 2927 -2903 0
-2865 -2871 2927 -2895 0
-2865 -2867 2927 -2919 0
-2861 -2871 2927 -2920 0
-2864 -2868 2927 -2913 0
-2862 -2867 2927 -2914 0
-2865 -2866 2927 -2897 0
-2865 -2868 2927 -2915 0
-2862 -2872 2927 -2906 0
-2865 -2872 2927 -2898 0
-2864 -2870 2927 -2917 0
-2861 -2872 2927 -2922 0
-2862 -2868 2927 -2923 0
-2861 -2868 2927 -2924 0
-2864 -2873 -2928 2899 0
-2864 -2878 -2928 2907 0
-2864 -2874 -2928 2886 0
-2862 -2877 -2928 2887 0
-2864 -2880 -2928 2889 0
-2861 -2874 -2928 2890 0
-2863 -2874 -2928 2902 0
-2865 -2877 -2928 2918 0
-2863 -2880 -2928 2892 0
-2864 -2876 -2928 2893 0
-2863 -2877 -2928 2911 0
-2861 -2877 -2928 2903 0
-2865 -2878 -2928 2895 0
-2865 -2874 -2928 2919 0
-2861 -2878 -2928 2920 0
-2864 -2875 -2928 2913 0
-2862 -2874 -2928 2914 0
-2865 -2873 -2928 2897 0
-2865 -2875 -2928 2915 0
-2862 -2880 -2928 2906 0
-2865 -2880 -2928 2898 0
-2864 -2877 -2928 2917 0
-2861 -2880 -2928 2922 0
-2862 -2875 -2928 2923 0
-2861 -2875 -2928 2924 0
-2870 -2929 2910 0
-2869 -2929 2884 0
-2871 -2929 2885 0
-2867 -2929 2904 0
-2866 -2929 2909 0
-2868 -2929 2901 0
-2872 -2929 2891 0
-2874 2930 -2900 0
-2879 2930 -2894 0
-2880 2930 -2908 0
-2875 2930 -2888 0
-2878 2930 -2912 0
-2876 2930 -2896 0
-2877 2930 -2905 0
-2873 2930 -2921 0
-2877 2931 -2910 0
-2876 2931 -2884 0
-2878 2931 -2885 0
-2874 2931 -2904 0
-2873 2931 -2909 0
-2875 2931 -2901 0
-2879 2931 -2916 0
-2880 2931 -2891 0
-2861 2932 -2909 0
-2865 2932 -2884 0
-2862 2932 -2885 0
-2863 2932 -2901 0
-2864 2932 -2916 0
-2861 -2932 2909 0
-2865 -2932 2884 0
-2862 -2932 2885 0
-2863 -2932 2901 0
-2864 -2932 2916 0
-2933 2866 -2873 0
-2933 -2866 2873 0
-2933 2867 -2874 0
-2933 -2867 2874 0
-2933 2868 -2875 0
-2933 -2868 2875 0
-2933 2869 -2876 0
-2933 -2869 2876 0
-2933 2870 -2877 0
-2933 -2870 2877 0
-2933 2871 -2878 0
-2933 -2871 2878 0
-2933 2872 -2880 0
-2933 -2872 2880 0
-2866 -2873 2933 0
-2867 -2874 2933 0
-2868 -2875 2933 0
-2869 -2876 2933 0
-2870 -2877 2933 0
-2871 -2878 2933 0
-2872 -2880 2933 0
-2879 -2933 0
-2851 -2927 2933 0
-2851 2929 0
-2851 2926 0
-2851 2928 0
-2934 2873 -2866 0
-2934 -2873 2866 0
-2934 2874 -2867 0
-2934 -2874 2867 0
-2934 2875 -2868 0
-2934 -2875 2868 0
-2934 2876 -2869 0
-2934 -2876 2869 0
-2934 2877 -2870 0
-2934 -2877 2870 0
-2934 2878 -2871 0
-2934 -2878 2871 0
-2934 2880 -2872 0
-2934 -2880 2872 0
-2873 -2866 2934 0
-2874 -2867 2934 0
-2875 -2868 2934 0
-2876 -2869 2934 0
-2877 -2870 2934 0
-2878 -2871 2934 0
-2880 -2872 2934 0
-2879 -2934 0
-2935 2873 -2861 0
-2935 -2873 2861 0
-2935 2878 -2862 0
-2935 -2878 2862 0
-2935 2875 -2863 0
-2935 -2875 2863 0
-2935 2879 -2864 0
-2935 -2879 2864 0
-2935 2876 -2865 0
-2935 -2876 2865 0
-2873 -2861 2935 0
-2878 -2862 2935 0
-2875 -2863 2935 0
-2879 -2864 2935 0
-2876 -2865 2935 0
-2877 -2935 0
-2874 -2935 0
-2880 -2935 0
-2851 -2930 2935 0
-2936 2861 -2866 0
-2936 -2861 2866 0
-2936 2862 -2871 0
-2936 -2862 2871 0
-2936 2863 -2868 0
-2936 -2863 2868 0
-2936 2865 -2869 0
-2936 -2865 2869 0
-2861 -2866 2936 0
-2862 -2871 2936 0
-2863 -2868 2936 0
-2865 -2869 2936 0
-2864 -2936 0
-2870 -2936 0
-2867 -2936 0
-2872 -2936 0
-2851 -2932 2936 0
-2853 -2927 2933 0
-2853 -2931 2935 0
-2853 2932 0
-2853 2928 0
-2853 -2926 2936 0
-2853 2925 0
-2706 2882 0
-2707 2881 0
-2708 2882 0
-2705 2881 0
-2882 2706 2708 0
-2881 2707 2705 0
-2884 151 -2883 0
2884 -151 -2883 0
-2885 152 -2883 0
2885 -152 -2883 0
-2886 154 -2883 0
2886 -154 -2883 0
-2887 155 -2883 0
2887 -155 -2883 0
-2888 385 -2883 0
2888 -385 -2883 0
-2889 156 -2883 0
2889 -156 -2883 0
-2890 158 -2883 0
2890 -158 -2883 0
-2891 159 -2883 0
2891 -159 -2883 0
-2892 160 -2883 0
2892 -160 -2883 0
-2716 602 -2883 0
2716 -602 -2883 0
-2893 10 -2883 0
2893 -10 -2883 0
-2894 162 -2883 0
2894 -162 -2883 0
-2895 163 -2883 0
2895 -163 -2883 0
-2720 270 -2883 0
2720 -270 -2883 0
-2896 386 -2883 0
2896 -386 -2883 0
-2897 11 -2883 0
2897 -11 -2883 0
-2723 271 -2883 0
2723 -271 -2883 0
-2898 167 -2883 0
2898 -167 -2883 0
-2899 170 -2883 0
2899 -170 -2883 0
-2900 171 -2883 0
2900 -171 -2883 0
-2901 172 -2883 0
2901 -172 -2883 0
-2727 273 -2883 0
2727 -273 -2883 0
-2902 12 -2883 0
2902 -12 -2883 0
-2903 174 -2883 0
2903 -174 -2883 0
-2904 274 -2883 0
2904 -274 -2883 0
-2905 387 -2883 0
2905 -387 -2883 0
-2906 176 -2883 0
2906 -176 -2883 0
-2907 153 -2883 0
2907 -153 -2883 0
-2908 388 -2883 0
2908 -388 -2883 0
-2909 157 -2883 0
2909 -157 -2883 0
-2734 267 -2883 0
2734 -267 -2883 0
-2910 268 -2883 0
2910 -268 -2883 0
-2735 269 -2883 0
2735 -269 -2883 0
-2911 161 -2883 0
2911 -161 -2883 0
-2912 389 -2883 0
2912 -389 -2883 0
-2913 164 -2883 0
2913 -164 -2883 0
-2914 165 -2883 0
2914 -165 -2883 0
-2915 166 -2883 0
2915 -166 -2883 0
-2916 168 -2883 0
2916 -168 -2883 0
-2917 169 -2883 0
2917 -169 -2883 0
-2742 272 -2883 0
2742 -272 -2883 0
-2918 173 -2883 0
2918 -173 -2883 0
-2919 175 -2883 0
2919 -175 -2883 0
-2920 13 -2883 0
2920 -13 -2883 0
-2746 603 -2883 0
2746 -603 -2883 0
-2921 390 -2883 0
2921 -390 -2883 0
-2922 177 -2883 0
2922 -177 -2883 0
-2923 14 -2883 0
2923 -14 -2883 0
-2924 178 -2883 0
2924 -178 -2883 0
-2778 2937 0
-2937 2778 0
a 2883 0
